solution status: node limit reached
objective value:                                   94
x#2                                                 1 	(obj:0)
x#3                                                 1 	(obj:0)
x#4                                                 1 	(obj:0)
x#6                                                 1 	(obj:0)
x#10                                                1 	(obj:0)
x#11                                                1 	(obj:0)
x#12                                                1 	(obj:0)
x#16                                                1 	(obj:0)
x#18                                                1 	(obj:0)
x#19                                                1 	(obj:0)
x#21                                                1 	(obj:0)
x#22                                                1 	(obj:0)
x#29                                                1 	(obj:0)
x#30                                                1 	(obj:0)
x#31                                                1 	(obj:0)
x#33                                                1 	(obj:0)
x#37                                                1 	(obj:0)
x#39                                                1 	(obj:0)
x#42                                                1 	(obj:0)
x#43                                                1 	(obj:0)
x#44                                                1 	(obj:0)
x#48                                                1 	(obj:0)
x#51                                                1 	(obj:0)
x#54                                                1 	(obj:0)
x#56                                                1 	(obj:0)
x#62                                                1 	(obj:0)
x#63                                                1 	(obj:0)
x#66                                                1 	(obj:0)
x#68                                                1 	(obj:0)
x#69                                                1 	(obj:0)
x#71                                                1 	(obj:0)
x#72                                                1 	(obj:0)
x#73                                                1 	(obj:0)
x#75                                                1 	(obj:0)
x#76                                                1 	(obj:0)
x#78                                                1 	(obj:0)
x#79                                                1 	(obj:0)
x#80                                                1 	(obj:0)
x#83                                                1 	(obj:0)
x#84                                                1 	(obj:0)
x#86                                                1 	(obj:0)
x#88                                                1 	(obj:0)
x#91                                                1 	(obj:0)
x#93                                                1 	(obj:0)
x#95                                                1 	(obj:0)
x#96                                                1 	(obj:0)
x#99                                                1 	(obj:0)
x#107                                               1 	(obj:0)
x#109                                               1 	(obj:0)
x#110                                               1 	(obj:0)
x#113                                               1 	(obj:0)
x#118                                               1 	(obj:0)
x#121                                               1 	(obj:0)
x#122                                               1 	(obj:0)
x#124                                               1 	(obj:0)
x#126                                               1 	(obj:0)
x#127                                               1 	(obj:0)
x#128                                               1 	(obj:0)
x#129                                               1 	(obj:0)
x#133                                               1 	(obj:0)
x#134                                               1 	(obj:0)
x#138                                               1 	(obj:0)
x#139                                               1 	(obj:0)
x#140                                               1 	(obj:0)
x#144                                               1 	(obj:0)
x#145                                               1 	(obj:0)
x#146                                               1 	(obj:0)
x#147                                               1 	(obj:0)
x#151                                               1 	(obj:0)
x#154                                               1 	(obj:0)
x#155                                               1 	(obj:0)
x#157                                               1 	(obj:0)
x#159                                               1 	(obj:0)
x#160                                               1 	(obj:0)
x#161                                               1 	(obj:0)
x#163                                               1 	(obj:0)
x#164                                               1 	(obj:0)
x#165                                               1 	(obj:0)
x#166                                               1 	(obj:0)
x#167                                               1 	(obj:0)
x#168                                               1 	(obj:0)
x#170                                               1 	(obj:0)
x#173                                               1 	(obj:0)
x#174                                               1 	(obj:0)
x#175                                               1 	(obj:0)
x#179                                               1 	(obj:0)
x#180                                               1 	(obj:0)
x#183                                               1 	(obj:0)
x#186                                               1 	(obj:0)
x#187                                               1 	(obj:0)
x#188                                               1 	(obj:0)
x#189                                               1 	(obj:0)
x#190                                               1 	(obj:0)
x#191                                               1 	(obj:0)
x#195                                               1 	(obj:0)
x#196                                               1 	(obj:0)
x#197                                               1 	(obj:0)
x#198                                               1 	(obj:0)
x#199                                               1 	(obj:0)
z#2                                                 1 	(obj:1)
z#3                                                 1 	(obj:1)
z#4                                                 1 	(obj:1)
z#10                                                1 	(obj:1)
z#11                                                1 	(obj:1)
z#12                                                1 	(obj:1)
z#16                                                1 	(obj:1)
z#18                                                1 	(obj:1)
z#19                                                1 	(obj:1)
z#22                                                1 	(obj:1)
z#29                                                1 	(obj:1)
z#30                                                1 	(obj:1)
z#31                                                1 	(obj:1)
z#33                                                1 	(obj:1)
z#37                                                1 	(obj:1)
z#39                                                1 	(obj:1)
z#42                                                1 	(obj:1)
z#43                                                1 	(obj:1)
z#44                                                1 	(obj:1)
z#48                                                1 	(obj:1)
z#51                                                1 	(obj:1)
z#54                                                1 	(obj:1)
z#56                                                1 	(obj:1)
z#62                                                1 	(obj:1)
z#63                                                1 	(obj:1)
z#66                                                1 	(obj:1)
z#68                                                1 	(obj:1)
z#69                                                1 	(obj:1)
z#71                                                1 	(obj:1)
z#72                                                1 	(obj:1)
z#73                                                1 	(obj:1)
z#75                                                1 	(obj:1)
z#76                                                1 	(obj:1)
z#78                                                1 	(obj:1)
z#79                                                1 	(obj:1)
z#80                                                1 	(obj:1)
z#83                                                1 	(obj:1)
z#84                                                1 	(obj:1)
z#86                                                1 	(obj:1)
z#88                                                1 	(obj:1)
z#91                                                1 	(obj:1)
z#93                                                1 	(obj:1)
z#95                                                1 	(obj:1)
z#96                                                1 	(obj:1)
z#99                                                1 	(obj:1)
z#107                                               1 	(obj:1)
z#109                                               1 	(obj:1)
z#110                                               1 	(obj:1)
z#113                                               1 	(obj:1)
z#118                                               1 	(obj:1)
z#121                                               1 	(obj:1)
z#122                                               1 	(obj:1)
z#124                                               1 	(obj:1)
z#126                                               1 	(obj:1)
z#127                                               1 	(obj:1)
z#128                                               1 	(obj:1)
z#129                                               1 	(obj:1)
z#138                                               1 	(obj:1)
z#139                                               1 	(obj:1)
z#140                                               1 	(obj:1)
z#144                                               1 	(obj:1)
z#145                                               1 	(obj:1)
z#146                                               1 	(obj:1)
z#147                                               1 	(obj:1)
z#151                                               1 	(obj:1)
z#154                                               1 	(obj:1)
z#155                                               1 	(obj:1)
z#157                                               1 	(obj:1)
z#159                                               1 	(obj:1)
z#161                                               1 	(obj:1)
z#163                                               1 	(obj:1)
z#164                                               1 	(obj:1)
z#165                                               1 	(obj:1)
z#166                                               1 	(obj:1)
z#167                                               1 	(obj:1)
z#168                                               1 	(obj:1)
z#170                                               1 	(obj:1)
z#173                                               1 	(obj:1)
z#174                                               1 	(obj:1)
z#175                                               1 	(obj:1)
z#179                                               1 	(obj:1)
z#180                                               1 	(obj:1)
z#183                                               1 	(obj:1)
z#186                                               1 	(obj:1)
z#187                                               1 	(obj:1)
z#188                                               1 	(obj:1)
z#189                                               1 	(obj:1)
z#190                                               1 	(obj:1)
z#191                                               1 	(obj:1)
z#195                                               1 	(obj:1)
z#196                                               1 	(obj:1)
z#197                                               1 	(obj:1)
z#198                                               1 	(obj:1)
z#199                                               1 	(obj:1)
